!-----------------------------------------------------------------------------
! MECANISME CHEMKIN : CROISSANCE CrC (UNITS: SI - J, KMOL, K)
!-----------------------------------------------------------------------------

ELEMENTS
  H  C  N  CR
END

SPECIES
  MH_BBC  MH_MBC  MH_C6H6_BBC  MH_C6H6  M_H2  C2H2  N2
  M_CR(B)  C(B)   M_CR(S)
END

THERMO
   300.000  1000.000  5000.000
! Donnees thermodynamiques (Format NASA 7-coefficients)
MH_BBC            Oct2425C  12H  12CR 1      G  0300.00  5000.00  1000.00      1
 7.13300000E+00 7.44500000E-02-2.73000000E-05 1.09500000E-17-6.77600000E-21    2
 2.39900000E+04 2.94200000E+02-1.20650000E+01 1.45958400E-01-1.24800000E-04    3
 6.84270000E-08-2.99910000E-11 2.79312004E+04 3.87510000E+02                   4
MH_MBC            Oct2425C   6H   6CR 1      G  0300.00  5000.00  0770.00      1
 2.99500000E+00 4.13800000E-02-1.57600000E-05-2.16800000E-19 0.00000000E+00    2
 2.80900000E+04 4.93469182E+01-8.29120000E+00 9.56300000E-02-1.17650000E-04    3
 9.42770000E-08-3.71560000E-11 2.99278326E+04 3.15230000E+02                   4
MH_C6H6_BBC       Oct2425C   6H   6          G  0300.00  5000.00  1000.00      1
-4.60981370E+00 5.87422890E-02-3.65577330E-05 5.98004620E-09 1.65499680E-12    2
 9.02951860E+03 4.26359560E+01 8.78555390E+00 2.40077800E-02-8.98179680E-06    3
 1.52909670E-09-9.83815550E-14 5.27284380E+03-2.70274350E+01                   4
MH_C6H6           Oct2425C   6H   6          G  0300.00  5000.00  1000.00      1
-4.60981370E+00 5.87422890E-02-3.65577330E-05 5.98004620E-09 1.65499680E-12    2
 9.02951860E+03 4.26359560E+01 8.78555390E+00 2.40077800E-02-8.98179680E-06    3
 1.52909670E-09-9.83815550E-14 5.27284380E+03-2.70274350E+01                   4
M_H2              Oct2425H   2               G  0300.00  5000.00  1000.00      1
 2.99142300E+00 7.00064400E-04-5.63382900E-08-9.23157800E-12 1.58275200E-15    2
-8.35034000E+02-1.35511000E+00 3.29812400E+00 8.24944200E-04-8.14301500E-07    3
-9.47543400E-11 4.13487200E-13-1.01252100E+03-3.29409400E+00                   4
C2H2              Oct2425C   2H   2          G  0300.00  5000.00  1000.00      1
 4.43677000E+00 5.37603900E-03-1.91281700E-06 3.28637900E-10-2.15671000E-14    2
 2.56676600E+04-2.80033800E+00 2.01356200E+00 1.51904500E-02-1.61631900E-05    3
 9.07899200E-09-1.91274600E-12 2.61244400E+04 8.80537800E+00                   4
N2                L 6/88N   2                G  0300.00  5000.00  1000.00      1
 0.02927320E+02 0.14878068E-02-0.05684761E-05 0.10097038E-09-0.06753351E-13    2
-0.09227977E+04 0.05980528E+02 0.03298677E+02 0.14082404E-02-0.03963222E-04    3
 0.05640553E-07-0.02444854E-10-0.10208999E+04 0.03950372E+02                   4
M_CR(B)           Oct2425CR  1               S  0311.50  2130.00  1000.00      1
 1.82863496E+00 4.19562088E-03-2.82734650E-06-9.15994974E-10 1.55203201E-12    2
-7.05502688E+02-8.69806210E+00 4.59782684E+00-4.81791258E-03 5.84129875E-06    3
-2.07036898E-09 2.82102346E-13-1.31489682E+03-2.24454773E+01                   4
C(B)              Oct2425C   1               S  0100.00  5000.00  1000.00      1
 1.49016640E+00 1.66212560E-03-6.68720400E-07 1.29087960E-10-9.20533400E-15    2
-7.07401800E+02-8.71778500E+00-6.70566100E-01 7.18149900E-03-5.63292100E-06    3
 2.14229800E-09-4.16856200E-13-7.33949800E+01 2.60159500E+00                   4
M_CR(S)           Oct2425CR  1               S  0200.00  6000.00  1000.00      1
 2.50263130E+00-2.83283701E-05 1.06886461E-07-1.66193236E-10 9.08640563E-14    2
 4.70600240E+04 6.71096221E+00 2.92666560E+00-1.15686880E-03 9.15715739E-07    3
-1.94664197E-10 1.50118710E-14 4.69529384E+04 4.53441621E+00                   4
END

TRANSPORT
! Species       Index   Eps/k (K)  Sigma (A)  Dipole (D)  Polar (A^3)  Z-Rot
MH_BBC          2       465.000    5.276      0.000       0.000        0.000
MH_MBC          2       465.000    5.276      0.000       0.000        0.000
MH_C6H6_BBC     2       465.312    5.276      0.000       0.000        0.000
MH_C6H6         2       465.312    5.276      0.000       0.000        0.000
M_H2            1       59.700     2.827      0.000       0.787        0.000
C2H2            2       231.800    4.033      0.000       3.487        0.000
N2              2       71.400     3.798      0.000       1.710        0.000
END

REACTIONS  KELVINS
! Reactions de Volume
MH_BBC => MH_MBC + MH_C6H6_BBC                     8.000E+04    0.50    7000.0
END

SURFACE
! Site de surface : CR_SITE
SITE /CR_SITE/ SDEN/1.14E-08/
  M_CR(S)   1.0
  
REACTIONS  KELVINS
! Reaction de surface 1 : General Rate
MH_MBC + M_CR(S) => MH_C6H6 + M_CR(B) + M_CR(S)    2.500E+15    0.50    8000.0

! Reaction de surface 2 : Sticking Coefficient
MH_C6H6 + M_CR(S) => 1.15M_H2 + 1.85C2H2 + 2.3C(B) + M_CR(S) 
  STICK 1.00    0.00    0.0
END